34
100
70	2
69	1
68	2
67	1
66	1
65	2
64	1
63	1
62	1
59	1
57	1
55	2
54	1
52	1
51	1
50	3
49	2
45	1
40	1
38	1
37	1
35	1
34	3
33	3
32	2
28	1
24	1
22	1
21	3
20	1
19	1
18	1
15	2
10	2
